
Gurobi 9.0.2 (win64) logging started Sun Dec 27 06:40:08 2020

Changed value of parameter logfile to result\SunCable-20201227T0415\scenario_2030_p10_cab4000.log
   Prev:   Default: 
Gurobi Optimizer version 9.0.2 build v9.0.2rc0 (win64)
Optimize a model with 1243974 rows, 762167 columns and 3491691 nonzeros
Model fingerprint: 0xdc6c9b13
Coefficient statistics:
  Matrix range     [1e-07, 4e+05]
  Objective range  [1e+00, 1e+00]
  Bounds range     [0e+00, 0e+00]
  RHS range        [2e-05, 3e+08]
Warning: Model contains large matrix coefficient range
         Consider reformulating model or setting NumericFocus parameter
         to avoid numerical issues.

Concurrent LP optimizer: primal simplex, dual simplex, and barrier
Showing barrier log only...

Presolve removed 1068997 rows and 595935 columns
Presolve time: 2.72s
Presolved: 174977 rows, 280098 columns, 652320 nonzeros

Ordering time: 0.08s

Barrier statistics:
 Dense cols : 5
 AA' NZ     : 6.422e+05
 Factor NZ  : 3.150e+06 (roughly 200 MBytes of memory)
 Factor Ops : 7.040e+07 (less than 1 second per iteration)
 Threads    : 30

                  Objective                Residual
Iter       Primal          Dual         Primal    Dual     Compl     Time
   0  -2.53636001e+16 -1.07293895e+15  7.40e+06 2.54e+04  3.04e+12     3s
   1  -5.47930120e+15 -1.08612795e+15  1.59e+06 4.56e+06  8.56e+11     3s
   2  -1.76569176e+15 -1.02454276e+15  5.15e+05 8.53e+05  2.47e+11     4s
   3  -3.45573133e+14 -8.99233134e+14  1.02e+05 1.35e+05  4.94e+10     4s
   4  -7.78436823e+13 -5.53470971e+14  2.21e+04 3.71e+04  1.18e+10     4s
   5  -2.42375816e+13 -3.72919412e+14  7.04e+03 1.83e+04  4.52e+09     5s
   6  -7.26279261e+12 -2.70288191e+14  2.30e+03 9.76e+03  1.98e+09     5s
   7  -2.33400193e+12 -1.02693190e+14  8.57e+02 8.48e+02  4.50e+08     5s
   8   4.73329585e+11 -2.65438605e+13  2.08e+01 4.52e+01  5.36e+07     5s
   9   2.82980091e+11 -1.50290834e+12  1.34e+00 1.38e+00  3.32e+06     6s
  10   1.03167771e+11 -6.05054937e+11  3.07e-01 1.50e-01  1.28e+06     6s
  11   2.96371250e+10 -1.30655804e+11  5.16e-02 5.59e-09  2.85e+05     6s
  12   1.85121105e+10 -4.87774885e+10  2.73e-02 9.31e-09  1.19e+05     6s
  13   1.03411465e+10 -1.00785395e+10  5.56e-03 7.45e-09  3.61e+04     7s
  14   8.73653251e+09 -1.65418260e+09  2.44e-03 7.45e-09  1.83e+04     7s
  15   8.05309462e+09  7.03345746e+08  1.10e-03 5.59e-09  1.30e+04     7s
  16   7.67983866e+09  2.60367216e+09  4.45e-04 5.59e-09  8.94e+03     7s
  17   7.53759115e+09  3.49236007e+09  2.16e-04 3.73e-09  7.12e+03     7s
  18   7.46530114e+09  4.20129041e+09  1.10e-04 3.73e-09  5.74e+03     8s
  19   7.41692691e+09  5.01285539e+09  5.53e-05 2.79e-09  4.23e+03     8s
  20   7.39088514e+09  6.00019393e+09  3.62e-05 2.79e-09  2.45e+03     8s
  21   7.38063102e+09  6.29301951e+09  2.96e-05 2.79e-09  1.91e+03     9s
  22   7.37576837e+09  6.36723010e+09  2.63e-05 2.79e-09  1.77e+03     9s
  23   7.36626752e+09  6.42608625e+09  2.00e-05 2.79e-09  1.65e+03     9s
  24   7.36182196e+09  6.53095820e+09  1.68e-05 2.79e-09  1.46e+03     9s
  25   7.35156948e+09  6.95869207e+09  1.02e-05 2.79e-09  6.91e+02    10s
  26   7.34743330e+09  7.02578472e+09  8.30e-06 2.79e-09  5.66e+02    10s
  27   7.33771353e+09  7.05911891e+09  3.31e-06 2.79e-09  4.90e+02    10s
  28   7.33551464e+09  7.10711317e+09  2.49e-06 2.79e-09  4.02e+02    11s
  29   7.33524059e+09  7.11748216e+09  2.39e-06 2.79e-09  3.83e+02    11s
  30   7.33134691e+09  7.16768840e+09  9.76e-07 1.86e-09  2.88e+02    11s
  31   7.33072698e+09  7.20257596e+09  7.34e-07 1.86e-09  2.25e+02    11s
  32   7.32967307e+09  7.21015840e+09  4.57e-07 2.79e-09  2.10e+02    12s
  33   7.32858328e+09  7.23234712e+09  2.70e-07 1.86e-09  1.69e+02    12s
  34   7.32803959e+09  7.25970968e+09  1.58e-07 1.86e-09  1.20e+02    12s
  35   7.32746499e+09  7.28659955e+09  5.86e-08 1.86e-09  7.19e+01    13s
  36   7.32732443e+09  7.29237680e+09  4.58e-08 1.86e-09  6.14e+01    13s
  37   7.32716567e+09  7.30624653e+09  3.06e-08 2.79e-09  3.68e+01    13s
  38   7.32701161e+09  7.31146423e+09  6.77e-08 1.86e-09  2.73e+01    13s
  39   7.32692762e+09  7.31456714e+09  4.78e-08 1.86e-09  2.17e+01    13s
  40   7.32689876e+09  7.31738159e+09  9.93e-08 1.86e-09  1.67e+01    14s
  41   7.32688249e+09  7.31797328e+09  8.76e-08 2.79e-09  1.57e+01    14s
  42   7.32686115e+09  7.31858822e+09  6.42e-08 1.86e-09  1.45e+01    14s
  43   7.32684910e+09  7.32331947e+09  5.09e-08 1.86e-09  6.21e+00    14s
  44   7.32680273e+09  7.32638553e+09  1.35e-07 2.79e-09  7.34e-01    15s
  45   7.32679295e+09  7.32664497e+09  6.94e-08 1.86e-09  2.60e-01    15s
  46   7.32679015e+09  7.32677912e+09  6.26e-08 2.79e-09  1.94e-02    15s
  47   7.32678990e+09  7.32678982e+09  4.91e-08 2.79e-09  1.56e-04    15s
  48   7.32678990e+09  7.32678982e+09  1.56e-04 8.03e-09  1.54e-04    16s

Barrier solved model in 48 iterations and 15.71 seconds
Optimal objective 7.32678990e+09

Crossover log...

    7922 DPushes remaining with DInf 0.0000000e+00                16s
       0 DPushes remaining with DInf 0.0000000e+00                18s
Warning: Markowitz tolerance tightened to 0.25

   77057 PPushes remaining with PInf 3.0553229e-04                18s
   54294 PPushes remaining with PInf 7.0338863e-03                30s
   37640 PPushes remaining with PInf 8.4418549e-03                31s
    7681 PPushes remaining with PInf 2.7017343e-04                36s
       0 PPushes remaining with PInf 0.0000000e+00                41s

  Push phase complete: Pinf 0.0000000e+00, Dinf 2.0297436e+02     41s

Iteration    Objective       Primal Inf.    Dual Inf.      Time
   84982    7.3267899e+09   0.000000e+00   2.029744e+02     41s
   84998    7.3267899e+09   0.000000e+00   0.000000e+00     43s

Solved with barrier
Solved in 84998 iterations and 43.03 seconds
Optimal objective  7.326789892e+09
Warning: unscaled primal violation = 0.000856184 and residual = 0.000856184
